N = 12;
H = 6;
T = 2;

avail = array3d(1..N, 1..H, 1..T, [8, 0, 4, 5, 1, 9, 5, 1, 2, 3, 10, 9, 1, 1, 5, 5, 8, 2, 7, 4, 3, 1, 10, 5, 0, 2, 1, 5, 7, 3, 3, 5, 6, 10, 3, 6, 7, 8, 5, 6, 6, 8, 8, 8, 9, 0, 6, 9, 7, 7, 1, 0, 6, 3, 2, 2, 2, 8, 2, 8, 7, 2, 10, 9, 9, 7, 4, 5, 3, 1, 4, 6, 8, 3, 0, 7, 1, 8, 0, 6, 7, 2, 9, 0, 10, 5, 8, 10, 3, 4, 0, 0, 6, 3, 1, 8, 6, 3, 3, 3, 4, 10, 1, 9, 4, 4, 10, 5, 1, 6, 2, 8, 10, 9, 6, 2, 0, 7, 3, 4, 1, 4, 6, 3, 8, 0, 3, 8, 10, 10, 10, 9, 8, 9, 1, 0, 9, 9, 6, 7, 8, 5, 7, 0]);

r = array2d(1..H, 1..T, [1, 3, 2, 4, 7, 3, 0, 3, 6, 5, 3, 4]);
